CPXPARAM_TimeLimit                               1800
CPXPARAM_Read_DataCheck                          1
CPXPARAM_MIP_Strategy_HeuristicFreq              -1
Parallel mode: deterministic, using up to 8 threads for concurrent optimization.
Tried aggregator 1 time.
LP Presolve eliminated 334 rows and 51300 columns.
Reduced LP has 17646 rows, 3151 columns, and 52092 nonzeros.
Presolve time = 0.01 sec. (17.60 ticks)

Iteration log . . .
Iteration:     1   Dual objective     =           949.000000
Perturbation started.
Iteration:   357   Dual objective     =           949.000000
Iteration:   476   Dual objective     =           949.002002
Initializing dual steep norms . . .
Iteration:   477   Dual objective     =           949.002192
Iteration:   806   Dual objective     =           949.005415
Iteration:  1210   Dual objective     =           949.007066
Iteration:  1605   Dual objective     =           949.008538
Iteration:  1978   Dual objective     =           949.009705
Iteration:  2332   Dual objective     =           949.010842
Iteration:  2689   Dual objective     =           949.012694
Iteration:  3015   Dual objective     =           949.014543
Iteration:  3327   Dual objective     =           949.016313
Iteration:  3608   Dual objective     =           949.019490
Iteration:  3887   Dual objective     =           949.020311
Iteration:  4154   Dual objective     =           949.021789
Iteration:  4433   Dual objective     =           949.022494
Iteration:  4676   Dual objective     =           949.022965
Iteration:  4994   Dual objective     =           949.023329
Iteration:  5304   Dual objective     =           949.025522
Iteration:  5685   Dual objective     =           949.025769
Iteration:  5959   Dual objective     =           949.027231
Removing perturbation.

Barrier solved model.

